Grasp exp. instance_n_25_m_5_id_4.lp tipoLifted 0 szPool 5 nIteration 20 alpha 1 
Academic license - for non-commercial use only
Read LP format model from file ../input/instancesGenerated/instance_n_25_m_5_id_4.lp
Reading time = 0.00 seconds
: 5 rows, 25 columns, 125 nonzeros
Optimize a model with 5 rows, 25 columns and 125 nonzeros
Variable types: 0 continuous, 25 integer (25 binary)
Coefficient statistics:
  Matrix range     [1e+00, 1e+01]
  Objective range  [1e+00, 1e+01]
  Bounds range     [1e+00, 1e+00]
  RHS range        [6e+01, 8e+01]
Found heuristic solution: objective 52.0000000

Explored 0 nodes (0 simplex iterations) in 0.00 seconds
Thread count was 1 (of 8 available processors)

Solution count 1: 52 
No other solutions better than 0

Solution limit reached
Best objective 5.200000000000e+01, best bound -, gap -
C_1:	 1.00 x_1  = 1.000000 + 5.00 x_2  = 0.101266 + 8.00 x_3  = 1.000000 + 9.00 x_4  = 0.000000 + 3.00 x_5  = 1.000000 + 7.00 x_6  = 0.000000 + 6.00 x_7  = 1.000000 + 9.00 x_8  = 1.000000 + 4.00 x_9  = 0.000000 + 9.00 x_10  = 0.000000 + 4.00 x_11  = 0.000000 + 7.00 x_12  = 0.000000 + 5.00 x_13  = 0.000000 + 3.00 x_14  = 1.000000 + 1.00 x_15  = 0.000000 + 9.00 x_16  = 1.000000 + 3.00 x_17  = 1.000000 + 3.00 x_18  = 1.000000 + 1.00 x_19  = 1.000000 + 2.00 x_20  = 0.000000 + 6.00 x_21  = 0.075949 + 1.00 x_22  = 1.000000 + 3.00 x_23  = 0.506329 + 4.00 x_24  = 1.000000 + 1.00 x_25  = 0.000000 <= 57.00
C_2:	 3.00 x_1  = 1.000000 + 9.00 x_2  = 0.101266 + 10.00 x_3  = 1.000000 + 8.00 x_4  = 0.000000 + 5.00 x_5  = 1.000000 + 2.00 x_6  = 0.000000 + 1.00 x_7  = 1.000000 + 9.00 x_8  = 1.000000 + 1.00 x_9  = 0.000000 + 9.00 x_10  = 0.000000 + 3.00 x_11  = 0.000000 + 7.00 x_12  = 0.000000 + 6.00 x_13  = 0.000000 + 2.00 x_14  = 1.000000 + 3.00 x_15  = 0.000000 + 4.00 x_16  = 1.000000 + 5.00 x_17  = 1.000000 + 1.00 x_18  = 1.000000 + 1.00 x_19  = 1.000000 + 7.00 x_20  = 0.000000 + 1.00 x_21  = 0.075949 + 9.00 x_22  = 1.000000 + 2.00 x_23  = 0.506329 + 5.00 x_24  = 1.000000 + 1.00 x_25  = 0.000000 <= 57.00
C_3:	 5.00 x_1  = 1.000000 + 2.00 x_2  = 0.101266 + 4.00 x_3  = 1.000000 + 7.00 x_4  = 0.000000 + 5.00 x_5  = 1.000000 + 4.00 x_6  = 0.000000 + 1.00 x_7  = 1.000000 + 3.00 x_8  = 1.000000 + 5.00 x_9  = 0.000000 + 1.00 x_10  = 0.000000 + 8.00 x_11  = 0.000000 + 9.00 x_12  = 0.000000 + 1.00 x_13  = 0.000000 + 6.00 x_14  = 1.000000 + 9.00 x_15  = 0.000000 + 9.00 x_16  = 1.000000 + 9.00 x_17  = 1.000000 + 8.00 x_18  = 1.000000 + 4.00 x_19  = 1.000000 + 10.00 x_20  = 0.000000 + 10.00 x_21  = 0.075949 + 9.00 x_22  = 1.000000 + 6.00 x_23  = 0.506329 + 2.00 x_24  = 1.000000 + 1.00 x_25  = 0.000000 <= 69.00
C_4:	 4.00 x_1  = 1.000000 + 2.00 x_2  = 0.101266 + 10.00 x_3  = 1.000000 + 7.00 x_4  = 0.000000 + 8.00 x_5  = 1.000000 + 2.00 x_6  = 0.000000 + 1.00 x_7  = 1.000000 + 9.00 x_8  = 1.000000 + 7.00 x_9  = 0.000000 + 9.00 x_10  = 0.000000 + 3.00 x_11  = 0.000000 + 1.00 x_12  = 0.000000 + 2.00 x_13  = 0.000000 + 6.00 x_14  = 1.000000 + 7.00 x_15  = 0.000000 + 2.00 x_16  = 1.000000 + 5.00 x_17  = 1.000000 + 5.00 x_18  = 1.000000 + 2.00 x_19  = 1.000000 + 10.00 x_20  = 0.000000 + 6.00 x_21  = 0.075949 + 2.00 x_22  = 1.000000 + 10.00 x_23  = 0.506329 + 3.00 x_24  = 1.000000 + 7.00 x_25  = 0.000000 <= 65.00
C_5:	 1.00 x_1  = 1.000000 + 4.00 x_2  = 0.101266 + 7.00 x_3  = 1.000000 + 6.00 x_4  = 0.000000 + 7.00 x_5  = 1.000000 + 8.00 x_6  = 0.000000 + 10.00 x_7  = 1.000000 + 8.00 x_8  = 1.000000 + 9.00 x_9  = 0.000000 + 6.00 x_10  = 0.000000 + 7.00 x_11  = 0.000000 + 10.00 x_12  = 0.000000 + 9.00 x_13  = 0.000000 + 5.00 x_14  = 1.000000 + 7.00 x_15  = 0.000000 + 9.00 x_16  = 1.000000 + 9.00 x_17  = 1.000000 + 9.00 x_18  = 1.000000 + 10.00 x_19  = 1.000000 + 4.00 x_20  = 0.000000 + 7.00 x_21  = 0.075949 + 1.00 x_22  = 1.000000 + 10.00 x_23  = 0.506329 + 2.00 x_24  = 1.000000 + 4.00 x_25  = 0.000000 <= 84.00
Solution initial: 94.759494 
Number Constraints Used in Cover:5
GRASP Method!
Number cuts repeat: 0
value: 94.759494
Number Constraints Used in Cover:15
GRASP Method!
Number cuts repeat: 0
value: 94.759494
Number Constraints Used in Cover:19
GRASP Method!
Number cuts repeat: 0
value: 94.759494
Number Constraints Used in Cover:26
GRASP Method!
Number cuts repeat: 0
value: 94.759494
Number Constraints Used in Cover:36
GRASP Method!
Number cuts repeat: 0
value: 94.759494
Number Constraints Used in Cover:40
GRASP Method!
Number cuts repeat: 0
value: 94.759494
Number Constraints Used in Cover:50
GRASP Method!
Number cuts repeat: 0
value: 94.759494
Number Constraints Used in Cover:58
GRASP Method!
Number cuts repeat: 0
value: 94.759494
Number Constraints Used in Cover:68
GRASP Method!
Number cuts repeat: 0
value: 94.759494
Number Constraints Used in Cover:72
GRASP Method!
Number cuts repeat: 0
value: 94.759494
Number Constraints Used in Cover:82
GRASP Method!
Number cuts repeat: 0
value: 94.759494
Number Constraints Used in Cover:90
GRASP Method!
Number cuts repeat: 0
value: 94.759494
Number Constraints Used in Cover:105
GRASP Method!
Number cuts repeat: 0
value: 94.759494
Number Constraints Used in Cover:115
GRASP Method!
Number cuts repeat: 0
value: 94.759494
Number Constraints Used in Cover:125
GRASP Method!
Number cuts repeat: 0
value: 94.759494
Number Constraints Used in Cover:135
GRASP Method!
Number cuts repeat: 0
value: 94.759494
Number Constraints Used in Cover:150
GRASP Method!
Number cuts repeat: 0
value: 94.759494
Number Constraints Used in Cover:158
GRASP Method!
Number cuts repeat: 0
value: 94.759494
Number Constraints Used in Cover:169
GRASP Method!
Number cuts repeat: 0
value: 94.759494
Number Constraints Used in Cover:176
GRASP Method!
Number cuts repeat: 0
value: 94.759494
Number Constraints Used in Cover:188
GRASP Method!
Number cuts repeat: 0
value: 94.759494
Number Constraints Used in Cover:198
GRASP Method!
Number cuts repeat: 0
value: 94.759494
Number Constraints Used in Cover:207
GRASP Method!
Number cuts repeat: 0
value: 94.759494
Number Constraints Used in Cover:222
GRASP Method!
Number cuts repeat: 0
value: 94.759494
Number Constraints Used in Cover:233
GRASP Method!
Number cuts repeat: 0
value: 94.759494
Number Constraints Used in Cover:247
GRASP Method!
Number cuts repeat: 0
value: 94.759494
Number Constraints Used in Cover:261
GRASP Method!
Number cuts repeat: 0
value: 94.759494
Number Constraints Used in Cover:273
GRASP Method!
Number cuts repeat: 0
value: 94.759494
Number Constraints Used in Cover:283
GRASP Method!
Number cuts repeat: 0
value: 94.759494
Number Constraints Used in Cover:293
GRASP Method!
Number cuts repeat: 0
value: 94.759494
Number Constraints Used in Cover:303
GRASP Method!
Number cuts repeat: 0
value: 94.759494
Number Constraints Used in Cover:316
GRASP Method!
Number cuts repeat: 0
value: 94.759494
Number Constraints Used in Cover:328
GRASP Method!
Number cuts repeat: 0
value: 94.759494
Number Constraints Used in Cover:341
GRASP Method!
Number cuts repeat: 0
value: 94.759494
Number Constraints Used in Cover:354
GRASP Method!
Number cuts repeat: 0
value: 94.759494
Number Constraints Used in Cover:363
GRASP Method!
Number cuts repeat: 0
value: 94.759494
Number Constraints Used in Cover:373
GRASP Method!
Number cuts repeat: 0
value: 94.759494
Number Constraints Used in Cover:384
GRASP Method!
Number cuts repeat: 0
value: 94.759494
Number Constraints Used in Cover:391
GRASP Method!
Number cuts repeat: 0
value: 94.759494
Number Constraints Used in Cover:400
GRASP Method!
Number cuts repeat: 0
value: 94.759494
Number Constraints Used in Cover:414
GRASP Method!
Number cuts repeat: 0
value: 94.759494
Number Constraints Used in Cover:425
GRASP Method!
Number cuts repeat: 0
value: 94.759494
Number Constraints Used in Cover:432
GRASP Method!
Number cuts repeat: 0
value: 94.759494
Number Constraints Used in Cover:445
GRASP Method!
Number cuts repeat: 0
value: 94.759494
Number Constraints Used in Cover:452
GRASP Method!
Number cuts repeat: 0
value: 94.759494
Number Constraints Used in Cover:461
GRASP Method!
Number cuts repeat: 0
value: 94.759494
Number Constraints Used in Cover:476
GRASP Method!
Number cuts repeat: 0
value: 94.759494
Number Constraints Used in Cover:485
GRASP Method!
Number cuts repeat: 0
value: 94.759494
Number Constraints Used in Cover:498
GRASP Method!
Number cuts repeat: 0
value: 94.759494
Number Constraints Used in Cover:507
GRASP Method!
Number cuts repeat: 0
value: 94.759494
Number Constraints Used in Cover:517
GRASP Method!
Number cuts repeat: 0
value: 94.759494
Number Constraints Used in Cover:525
GRASP Method!
Number cuts repeat: 0
value: 94.759494
Number Constraints Used in Cover:539
GRASP Method!
Number cuts repeat: 0
value: 94.759494
Number Constraints Used in Cover:554
GRASP Method!
Number cuts repeat: 0
value: 94.759494
Number Constraints Used in Cover:566
GRASP Method!
Number cuts repeat: 0
value: 94.759494
Number Constraints Used in Cover:579
GRASP Method!
Number cuts repeat: 0
value: 94.759494
Number Constraints Used in Cover:585
GRASP Method!
Number cuts repeat: 0
value: 94.759494
Number Constraints Used in Cover:599
GRASP Method!
Number cuts repeat: 0
value: 94.759494
Number Constraints Used in Cover:609
GRASP Method!
Number cuts repeat: 0
value: 94.759494
Number Constraints Used in Cover:624
GRASP Method!
Number cuts repeat: 0
value: 94.759494
Number Constraints Used in Cover:633
GRASP Method!
Number cuts repeat: 0
value: 94.759494
Number Constraints Used in Cover:650
GRASP Method!
Number cuts repeat: 0
value: 94.759494
Number Constraints Used in Cover:665
GRASP Method!
Number cuts repeat: 0
value: 94.759494
Number Constraints Used in Cover:684
GRASP Method!
Number cuts repeat: 0
value: 94.759494
Number Constraints Used in Cover:703
GRASP Method!
Number cuts repeat: 0
value: 94.759494
Number Constraints Used in Cover:720
GRASP Method!
Number cuts repeat: 0
value: 94.759494
Number Constraints Used in Cover:744
GRASP Method!
Number cuts repeat: 0
value: 94.759494
Number Cuts Final: 756
